c clasp version 2.1.1
c Reading from p63.cnf
c Solving...
s SATISFIABLE

c Models        : 1+    
c Time          : 1.696s (Solving: 0.27s 1st Model: 0.26s Unsat: 0.00s)
c CPU Time      : 1.680s
c Choices       : 6686
c Conflicts     : 694
c Restarts      : 2      (Average: 347.00 Last: 206)

c Variables     : 225590 (Eliminated: 70021 Frozen:    0)
c Constraints   : 251799 (Binary: 65.1% Ternary: 33.6% Other:  1.3%)
c Lemmas        : 694    (Binary:  0.4% Ternary:  0.4% Other: 99.1%)
c   Conflict    : 694    (Average Length: 155.6) 
c   Loop        : 0      (Average Length: 0.0) 
c   Other       : 0      (Average Length: 0.0)
c   Deleted     : 0     
